\ Model knapsack_40_1_2
\ LP format - for model browsing. Use MPS format to capture full model detail.
\ Signature: 0xe8445ac406a3125e
Minimize
  - 817 y[0] - 1091 y[1] - 413 y[2] - 876 y[3] - 1059 y[4] - 429 y[5]
   - 276 y[6] - 665 y[7] - 229 y[8] - 919 y[9] - 1011 y[10] - 286 y[11]
   - 534 y[12] - 807 y[13] - 173 y[14] - 513 y[15] - 574 y[16] - 940 y[17]
   - 363 y[18] - 656 y[19] - 885 y[20] - 316 y[21] - 164 y[22] - 520 y[23]
   - 429 y[24] - 504 y[25] - 213 y[26] - 151 y[27] - 814 y[28] - 420 y[29]
   - 854 y[30] - 753 y[31] - 1022 y[32] - 651 y[33] - 209 y[34]
   - 1047 y[35] - 106 y[36] - 120 y[37] - 527 y[38] - 239 y[39]
Subject To
 primal_upper: 717 y[0] + 991 y[1] + 313 y[2] + 776 y[3] + 959 y[4]
   + 329 y[5] + 176 y[6] + 565 y[7] + 129 y[8] + 819 y[9] + 911 y[10]
   + 186 y[11] + 434 y[12] + 707 y[13] + 73 y[14] + 413 y[15] + 474 y[16]
   + 840 y[17] + 263 y[18] + 556 y[19] + 785 y[20] + 216 y[21] + 64 y[22]
   + 420 y[23] + 329 y[24] + 404 y[25] + 113 y[26] + 51 y[27] + 714 y[28]
   + 320 y[29] + 754 y[30] + 653 y[31] + 922 y[32] + 551 y[33] + 109 y[34]
   + 947 y[35] + 6 y[36] + 20 y[37] + 427 y[38] + 139 y[39] + 72 z[0]
   + 99 z[1] + 31 z[2] + 78 z[3] + 96 z[4] + 33 z[5] + 18 z[6] + 56 z[7]
   + 13 z[8] + 82 z[9] + 91 z[10] + 19 z[11] + 43 z[12] + 71 z[13]
   + 7 z[14] + 41 z[15] + 47 z[16] + 84 z[17] + 26 z[18] + 56 z[19]
   + 78 z[20] + 22 z[21] + 6 z[22] + 42 z[23] + 33 z[24] + 40 z[25]
   + 11 z[26] + 5 z[27] + 71 z[28] + 32 z[29] + 75 z[30] + 65 z[31]
   + 92 z[32] + 55 z[33] + 11 z[34] + 95 z[35] + z[36] + 2 z[37] + 43 z[38]
   + 14 z[39] <= 6191
 primal_lower0: - y[0] - 9 y[1] - 5 y[2] - 15 y[3] - 24 y[4] - 3 y[5]
   - 4 y[6] - 6 y[7] - 10 y[8] - 3 y[9] - 7 y[10] - 12 y[11] - 23 y[12]
   - 7 y[13] - 16 y[14] - 13 y[15] - 21 y[16] - 21 y[17] - 23 y[18]
   - 2 y[19] - 15 y[20] - 4 y[21] - y[22] - 24 y[23] - 8 y[24] - 20 y[25]
   - 15 y[26] - 5 y[27] - 24 y[28] - 3 y[29] - 13 y[30] - 6 y[31] - 7 y[32]
   - 8 y[33] - 3 y[34] - 20 y[35] - 3 y[36] - 12 y[37] - 8 y[38] - 4 y[39]
   + 683 u[0] + 236 u[1] + 172 u[2] + 16 u[3] + 830 u[4] + 94 u[5]
   + 779 u[6] + 446 u[7] + 360 u[8] + 279 u[9] + 553 u[10] + 299 u[11]
   + 865 u[12] + 943 u[13] + 611 u[14] + 397 u[15] + 817 u[16] + 588 u[17]
   + 450 u[18] + 420 u[19] + 983 u[20] + 261 u[21] + 715 u[22] + 85 u[23]
   + 576 u[24] + 105 u[25] + 972 u[26] + 604 u[27] + 440 u[28] + 165 u[29]
   + 876 u[30] + 950 u[31] + 601 u[32] + 100 u[33] + 616 u[34] + 84 u[35]
   + 45 u[36] + 760 u[37] + 902 u[38] + 219 u[39] <= 983
 mccormick1[0]: - u[0] + z[0] <= 0
 mccormick1[1]: - u[1] + z[1] <= 0
 mccormick1[2]: - u[2] + z[2] <= 0
 mccormick1[3]: - u[3] + z[3] <= 0
 mccormick1[4]: - u[4] + z[4] <= 0
 mccormick1[5]: - u[5] + z[5] <= 0
 mccormick1[6]: - u[6] + z[6] <= 0
 mccormick1[7]: - u[7] + z[7] <= 0
 mccormick1[8]: - u[8] + z[8] <= 0
 mccormick1[9]: - u[9] + z[9] <= 0
 mccormick1[10]: - u[10] + z[10] <= 0
 mccormick1[11]: - u[11] + z[11] <= 0
 mccormick1[12]: - u[12] + z[12] <= 0
 mccormick1[13]: - u[13] + z[13] <= 0
 mccormick1[14]: - u[14] + z[14] <= 0
 mccormick1[15]: - u[15] + z[15] <= 0
 mccormick1[16]: - u[16] + z[16] <= 0
 mccormick1[17]: - u[17] + z[17] <= 0
 mccormick1[18]: - u[18] + z[18] <= 0
 mccormick1[19]: - u[19] + z[19] <= 0
 mccormick1[20]: - u[20] + z[20] <= 0
 mccormick1[21]: - u[21] + z[21] <= 0
 mccormick1[22]: - u[22] + z[22] <= 0
 mccormick1[23]: - u[23] + z[23] <= 0
 mccormick1[24]: - u[24] + z[24] <= 0
 mccormick1[25]: - u[25] + z[25] <= 0
 mccormick1[26]: - u[26] + z[26] <= 0
 mccormick1[27]: - u[27] + z[27] <= 0
 mccormick1[28]: - u[28] + z[28] <= 0
 mccormick1[29]: - u[29] + z[29] <= 0
 mccormick1[30]: - u[30] + z[30] <= 0
 mccormick1[31]: - u[31] + z[31] <= 0
 mccormick1[32]: - u[32] + z[32] <= 0
 mccormick1[33]: - u[33] + z[33] <= 0
 mccormick1[34]: - u[34] + z[34] <= 0
 mccormick1[35]: - u[35] + z[35] <= 0
 mccormick1[36]: - u[36] + z[36] <= 0
 mccormick1[37]: - u[37] + z[37] <= 0
 mccormick1[38]: - u[38] + z[38] <= 0
 mccormick1[39]: - u[39] + z[39] <= 0
 mccormick2[0]: - y[0] + z[0] <= 0
 mccormick2[1]: - y[1] + z[1] <= 0
 mccormick2[2]: - y[2] + z[2] <= 0
 mccormick2[3]: - y[3] + z[3] <= 0
 mccormick2[4]: - y[4] + z[4] <= 0
 mccormick2[5]: - y[5] + z[5] <= 0
 mccormick2[6]: - y[6] + z[6] <= 0
 mccormick2[7]: - y[7] + z[7] <= 0
 mccormick2[8]: - y[8] + z[8] <= 0
 mccormick2[9]: - y[9] + z[9] <= 0
 mccormick2[10]: - y[10] + z[10] <= 0
 mccormick2[11]: - y[11] + z[11] <= 0
 mccormick2[12]: - y[12] + z[12] <= 0
 mccormick2[13]: - y[13] + z[13] <= 0
 mccormick2[14]: - y[14] + z[14] <= 0
 mccormick2[15]: - y[15] + z[15] <= 0
 mccormick2[16]: - y[16] + z[16] <= 0
 mccormick2[17]: - y[17] + z[17] <= 0
 mccormick2[18]: - y[18] + z[18] <= 0
 mccormick2[19]: - y[19] + z[19] <= 0
 mccormick2[20]: - y[20] + z[20] <= 0
 mccormick2[21]: - y[21] + z[21] <= 0
 mccormick2[22]: - y[22] + z[22] <= 0
 mccormick2[23]: - y[23] + z[23] <= 0
 mccormick2[24]: - y[24] + z[24] <= 0
 mccormick2[25]: - y[25] + z[25] <= 0
 mccormick2[26]: - y[26] + z[26] <= 0
 mccormick2[27]: - y[27] + z[27] <= 0
 mccormick2[28]: - y[28] + z[28] <= 0
 mccormick2[29]: - y[29] + z[29] <= 0
 mccormick2[30]: - y[30] + z[30] <= 0
 mccormick2[31]: - y[31] + z[31] <= 0
 mccormick2[32]: - y[32] + z[32] <= 0
 mccormick2[33]: - y[33] + z[33] <= 0
 mccormick2[34]: - y[34] + z[34] <= 0
 mccormick2[35]: - y[35] + z[35] <= 0
 mccormick2[36]: - y[36] + z[36] <= 0
 mccormick2[37]: - y[37] + z[37] <= 0
 mccormick2[38]: - y[38] + z[38] <= 0
 mccormick2[39]: - y[39] + z[39] <= 0
 mccormick3[0]: y[0] + u[0] - z[0] <= 1
 mccormick3[1]: y[1] + u[1] - z[1] <= 1
 mccormick3[2]: y[2] + u[2] - z[2] <= 1
 mccormick3[3]: y[3] + u[3] - z[3] <= 1
 mccormick3[4]: y[4] + u[4] - z[4] <= 1
 mccormick3[5]: y[5] + u[5] - z[5] <= 1
 mccormick3[6]: y[6] + u[6] - z[6] <= 1
 mccormick3[7]: y[7] + u[7] - z[7] <= 1
 mccormick3[8]: y[8] + u[8] - z[8] <= 1
 mccormick3[9]: y[9] + u[9] - z[9] <= 1
 mccormick3[10]: y[10] + u[10] - z[10] <= 1
 mccormick3[11]: y[11] + u[11] - z[11] <= 1
 mccormick3[12]: y[12] + u[12] - z[12] <= 1
 mccormick3[13]: y[13] + u[13] - z[13] <= 1
 mccormick3[14]: y[14] + u[14] - z[14] <= 1
 mccormick3[15]: y[15] + u[15] - z[15] <= 1
 mccormick3[16]: y[16] + u[16] - z[16] <= 1
 mccormick3[17]: y[17] + u[17] - z[17] <= 1
 mccormick3[18]: y[18] + u[18] - z[18] <= 1
 mccormick3[19]: y[19] + u[19] - z[19] <= 1
 mccormick3[20]: y[20] + u[20] - z[20] <= 1
 mccormick3[21]: y[21] + u[21] - z[21] <= 1
 mccormick3[22]: y[22] + u[22] - z[22] <= 1
 mccormick3[23]: y[23] + u[23] - z[23] <= 1
 mccormick3[24]: y[24] + u[24] - z[24] <= 1
 mccormick3[25]: y[25] + u[25] - z[25] <= 1
 mccormick3[26]: y[26] + u[26] - z[26] <= 1
 mccormick3[27]: y[27] + u[27] - z[27] <= 1
 mccormick3[28]: y[28] + u[28] - z[28] <= 1
 mccormick3[29]: y[29] + u[29] - z[29] <= 1
 mccormick3[30]: y[30] + u[30] - z[30] <= 1
 mccormick3[31]: y[31] + u[31] - z[31] <= 1
 mccormick3[32]: y[32] + u[32] - z[32] <= 1
 mccormick3[33]: y[33] + u[33] - z[33] <= 1
 mccormick3[34]: y[34] + u[34] - z[34] <= 1
 mccormick3[35]: y[35] + u[35] - z[35] <= 1
 mccormick3[36]: y[36] + u[36] - z[36] <= 1
 mccormick3[37]: y[37] + u[37] - z[37] <= 1
 mccormick3[38]: y[38] + u[38] - z[38] <= 1
 mccormick3[39]: y[39] + u[39] - z[39] <= 1
Bounds
Binaries
 y[0] y[1] y[2] y[3] y[4] y[5] y[6] y[7] y[8] y[9] y[10] y[11] y[12] y[13]
 y[14] y[15] y[16] y[17] y[18] y[19] y[20] y[21] y[22] y[23] y[24] y[25]
 y[26] y[27] y[28] y[29] y[30] y[31] y[32] y[33] y[34] y[35] y[36] y[37]
 y[38] y[39] u[0] u[1] u[2] u[3] u[4] u[5] u[6] u[7] u[8] u[9] u[10] u[11]
 u[12] u[13] u[14] u[15] u[16] u[17] u[18] u[19] u[20] u[21] u[22] u[23]
 u[24] u[25] u[26] u[27] u[28] u[29] u[30] u[31] u[32] u[33] u[34] u[35]
 u[36] u[37] u[38] u[39] z[0] z[1] z[2] z[3] z[4] z[5] z[6] z[7] z[8] z[9]
 z[10] z[11] z[12] z[13] z[14] z[15] z[16] z[17] z[18] z[19] z[20] z[21]
 z[22] z[23] z[24] z[25] z[26] z[27] z[28] z[29] z[30] z[31] z[32] z[33]
 z[34] z[35] z[36] z[37] z[38] z[39]
End
